(set-info :origin "SVCOMP13 benchmarks generated by Arie Gurfinkel")
(set-info :status unsat)
(set-logic HORN)
(declare-fun cp-rel-entry () Bool)
(declare-fun cp-rel-bb1.i.i35.i.i () Bool)
(declare-fun cp-rel-bb1.i.i (Real Real Real) Bool)
(assert |cp-rel-entry|)
(assert (forall ((?A Real) (?B Real) (?C Real) (?D Bool) )(let (($x637404 (and |cp-rel-entry| (<= ?C 0.0) (>= ?B 1.0) (<= ?B 1.0) (>= ?A 0.0) (<= ?A 0.0) (= ?D true) (>= ?C 0.0))))
(=> $x637404 (|cp-rel-bb1.i.i| ?A ?B ?C))))
)
(assert (forall ((?A Real) (?B Real) (?C Real) (?D Real) (?E Real) (?F Real) (?G Bool) (?H Bool) (?I Bool) (?J Bool) (?K Bool) (?L Bool) (?M Real) (?N Real) (?O Bool) (?P Bool) (?Q Bool) (?R Bool) (?S Bool) (?T Bool) (?U Real) (?V Real) (?W Bool) (?X Bool) (?Y Bool) (?Z Bool) (?A1 Bool) (?B1 Bool) (?C1 Bool) (?D1 Bool) (?E1 Bool) (?F1 Bool) (?G1 Bool) (?H1 Real) (?I1 Real) (?J1 Real) (?K1 Bool) (?L1 Real) (?M1 Bool) (?N1 Bool) (?O1 Real) (?P1 Bool) (?Q1 Real) (?R1 Real) (?S1 Bool) (?T1 Bool) (?U1 Bool) (?V1 Real) (?W1 Bool) (?X1 Bool) (?Y1 Bool) (?Z1 Bool) )(let (($x312664 (|cp-rel-bb1.i.i| ?D ?E ?F)))
(let (($x330794 (= ?N1 (or ?Z1 ?Y1))))
(let (($x215694 (or (not ?G) (and ?H ?I (not ?J)))))
(let (($x306928 (or (not ?G) ?I)))
(let (($x261815 (not ?K)))
(let (($x320909 (or $x261815 (and ?G ?L (<= ?M ?N) (>= ?M ?N)) (and ?H ?O ?J (<= ?M ?B) (>= ?M ?B)))))
(let (($x841667 (or $x261815 (and ?L (not ?O)) (and ?O (not ?L)))))
(let (($x3771 (or (not ?P) (and ?K ?Q (not ?R)))))
(let (($x356860 (or (not ?P) ?Q)))
(let (($x597448 (not ?S)))
(let (($x635918 (or $x597448 (and ?P ?T (<= ?U ?V) (>= ?U ?V)) (and ?K ?W ?R (<= ?U ?A) (>= ?U ?A)))))
(let (($x582905 (or $x597448 (and ?T (not ?W)) (and ?W (not ?T)))))
(let (($x41763 (or (not ?X) (and ?S ?Y ?Z))))
(let (($x901674 (or (not ?X) ?Y)))
(let (($x20192 (or (not ?A1) (and ?S ?B1 (not ?Z)))))
(let (($x890879 (or (not ?A1) ?B1)))
(let (($x159082 (or (not ?C1) (and ?A1 ?D1 ?E1))))
(let (($x799199 (or (not ?C1) ?D1)))
(let (($x30206 (>= ?H1 ?L1)))
(let (($x481512 (<= ?H1 ?L1)))
(let (($x864764 (and ?A1 ?M1 (not ?E1) $x481512 $x30206 (<= ?I1 0.0) (>= ?I1 0.0))))
(let (($x260210 (and ?X ?G1 (<= ?H1 ?M) (>= ?H1 ?M) (<= ?I1 ?J1) (>= ?I1 ?J1))))
(let (($x520262 (not ?F1)))
(let (($x268213 (or $x520262 $x260210 (and ?C1 ?K1 $x481512 $x30206 (<= ?I1 ?C) (>= ?I1 ?C)) $x864764)))
(let (($x894681 (or $x520262 (and ?G1 (not ?K1) (not ?M1)) (and ?K1 (not ?G1) (not ?M1)) (and ?M1 (not ?G1) (not ?K1)))))
(let (($x838963 (= ?F1 true)))
(let (($x300331 (= ?N1 true)))
(let (($x428002 (= ?J (= ?O1 0.0))))
(let (($x326156 (= ?Q1 (ite ?P1 1.0 0.0))))
(let (($x435837 (= ?R (= ?R1 0.0))))
(let (($x843239 (= ?V (ite ?S1 1.0 0.0))))
(let (($x410108 (= ?T1 (not (<= ?M 1.0)))))
(let (($x477281 (= ?U1 (not (<= ?M 0.0)))))
(let (($x372581 (= ?V1 (+ (~ 1.0) ?M))))
(let (($x362699 (= ?L1 (ite ?U1 ?V1 ?M))))
(let (($x33729 (= ?W1 (= ?U 0.0))))
(let (($x391002 (= ?X1 (= ?L1 0.0))))
(let (($x283401 (= ?E1 (and ?W1 ?X1))))
(let (($x353214 (= ?Y1 (= ?U 0.0))))
(let (($x164458 (= ?Z1 (= ?I1 0.0))))
(let (($x331423 (and (|cp-rel-bb1.i.i| ?A ?B ?C) $x164458 $x353214 $x283401 $x391002 $x33729 $x362699 $x372581 $x477281 (= ?J1 (ite ?T1 1.0 ?C)) $x410108 (= ?Z (= ?C 0.0)) $x843239 (= ?S1 (= ?A 0.0)) $x435837 (= ?N (+ ?Q1 ?B)) $x326156 (= ?P1 (not (<= 2.0 ?B))) $x428002 (>= ?F ?I1) (<= ?F ?I1) (>= ?E ?H1) (<= ?E ?H1) (>= ?D ?U) (<= ?D ?U) $x300331 $x838963 $x894681 $x268213 $x799199 $x159082 $x890879 $x20192 $x901674 $x41763 $x582905 $x635918 $x356860 $x3771 $x841667 $x320909 $x306928 $x215694 $x330794)))
(=> $x331423 $x312664)))))))))))))))))))))))))))))))))))))))))))
)
(assert (forall ((?A Real) (?B Real) (?C Real) (?D Bool) (?E Bool) (?F Bool) (?G Bool) (?H Bool) (?I Bool) (?J Real) (?K Real) (?L Bool) (?M Bool) (?N Bool) (?O Bool) (?P Bool) (?Q Bool) (?R Real) (?S Real) (?T Bool) (?U Bool) (?V Bool) (?W Bool) (?X Bool) (?Y Bool) (?Z Bool) (?A1 Bool) (?B1 Bool) (?C1 Bool) (?D1 Bool) (?E1 Real) (?F1 Real) (?G1 Real) (?H1 Bool) (?I1 Real) (?J1 Bool) (?K1 Bool) (?L1 Real) (?M1 Bool) (?N1 Real) (?O1 Real) (?P1 Bool) (?Q1 Bool) (?R1 Bool) (?S1 Real) (?T1 Bool) (?U1 Bool) (?V1 Bool) (?W1 Bool) )(let (($x330794 (= ?K1 (or ?W1 ?V1))))
(let (($x215694 (or (not ?D) (and ?E ?F (not ?G)))))
(let (($x306928 (or (not ?D) ?F)))
(let (($x261815 (not ?H)))
(let (($x167533 (or $x261815 (and ?D ?I (<= ?J ?K) (>= ?J ?K)) (and ?E ?L ?G (<= ?J ?B) (>= ?J ?B)))))
(let (($x841667 (or $x261815 (and ?I (not ?L)) (and ?L (not ?I)))))
(let (($x3771 (or (not ?M) (and ?H ?N (not ?O)))))
(let (($x356860 (or (not ?M) ?N)))
(let (($x597448 (not ?P)))
(let (($x852810 (or $x597448 (and ?M ?Q (<= ?R ?S) (>= ?R ?S)) (and ?H ?T ?O (<= ?R ?A) (>= ?R ?A)))))
(let (($x582905 (or $x597448 (and ?Q (not ?T)) (and ?T (not ?Q)))))
(let (($x41763 (or (not ?U) (and ?P ?V ?W))))
(let (($x901674 (or (not ?U) ?V)))
(let (($x20192 (or (not ?X) (and ?P ?Y (not ?W)))))
(let (($x890879 (or (not ?X) ?Y)))
(let (($x159082 (or (not ?Z) (and ?X ?A1 ?B1))))
(let (($x799199 (or (not ?Z) ?A1)))
(let (($x30206 (>= ?E1 ?I1)))
(let (($x481512 (<= ?E1 ?I1)))
(let (($x864764 (and ?X ?J1 (not ?B1) $x481512 $x30206 (<= ?F1 0.0) (>= ?F1 0.0))))
(let (($x260210 (and ?U ?D1 (<= ?E1 ?J) (>= ?E1 ?J) (<= ?F1 ?G1) (>= ?F1 ?G1))))
(let (($x520262 (not ?C1)))
(let (($x424980 (or $x520262 $x260210 (and ?Z ?H1 $x481512 $x30206 (<= ?F1 ?C) (>= ?F1 ?C)) $x864764)))
(let (($x894681 (or $x520262 (and ?D1 (not ?H1) (not ?J1)) (and ?H1 (not ?D1) (not ?J1)) (and ?J1 (not ?D1) (not ?H1)))))
(let (($x838963 (= ?C1 true)))
(let (($x428002 (= ?G (= ?L1 0.0))))
(let (($x326156 (= ?N1 (ite ?M1 1.0 0.0))))
(let (($x435837 (= ?O (= ?O1 0.0))))
(let (($x843239 (= ?S (ite ?P1 1.0 0.0))))
(let (($x410108 (= ?Q1 (not (<= ?J 1.0)))))
(let (($x477281 (= ?R1 (not (<= ?J 0.0)))))
(let (($x372581 (= ?S1 (+ (~ 1.0) ?J))))
(let (($x362699 (= ?I1 (ite ?R1 ?S1 ?J))))
(let (($x33729 (= ?T1 (= ?R 0.0))))
(let (($x391002 (= ?U1 (= ?I1 0.0))))
(let (($x283401 (= ?B1 (and ?T1 ?U1))))
(let (($x353214 (= ?V1 (= ?R 0.0))))
(let (($x164458 (= ?W1 (= ?F1 0.0))))
(let (($x312664 (|cp-rel-bb1.i.i| ?A ?B ?C)))
(let (($x608338 (and $x312664 $x164458 $x353214 $x283401 $x391002 $x33729 $x362699 $x372581 $x477281 (= ?G1 (ite ?Q1 1.0 ?C)) $x410108 (= ?W (= ?C 0.0)) $x843239 (= ?P1 (= ?A 0.0)) $x435837 (= ?K (+ ?N1 ?B)) $x326156 (= ?M1 (not (<= 2.0 ?B))) $x428002 (not (= ?K1 true)) $x838963 $x894681 $x424980 $x799199 $x159082 $x890879 $x20192 $x901674 $x41763 $x582905 $x852810 $x356860 $x3771 $x841667 $x167533 $x306928 $x215694 $x330794)))
(=> $x608338 |cp-rel-bb1.i.i35.i.i|))))))))))))))))))))))))))))))))))))))))))
)
(assert (not cp-rel-bb1.i.i35.i.i))
(check-sat)
